
Gurobi 6.0.0 (linux64) logging started Tue Mar  3 09:20:51 2015


Gurobi 6.0.0 (linux64) logging started Tue Mar  3 11:37:20 2015


Gurobi 6.0.0 (linux64) logging started Tue Mar  3 11:38:37 2015


Gurobi 6.0.0 (linux64) logging started Tue Mar  3 11:42:24 2015


Gurobi 6.0.0 (linux64) logging started Tue Mar  3 11:44:00 2015


Gurobi 6.0.0 (linux64) logging started Tue Mar  3 12:52:25 2015


Gurobi 6.0.0 (linux64) logging started Tue Mar  3 12:54:10 2015


Gurobi 6.0.0 (linux64) logging started Tue Mar  3 12:56:33 2015


Gurobi 6.0.0 (linux64) logging started Tue Mar  3 12:58:35 2015


Gurobi 6.0.0 (linux64) logging started Tue Mar  3 13:03:12 2015


Gurobi 6.0.0 (linux64) logging started Tue Mar  3 13:04:02 2015


Gurobi 6.0.0 (linux64) logging started Tue Mar  3 13:05:08 2015


Gurobi 6.0.0 (linux64) logging started Tue Mar  3 13:28:05 2015


Gurobi 6.0.0 (linux64) logging started Tue Mar  3 13:29:01 2015


Gurobi 6.0.0 (linux64) logging started Tue Mar  3 13:44:11 2015


Gurobi 6.0.0 (linux64) logging started Tue Mar  3 13:46:13 2015


Gurobi 6.0.0 (linux64) logging started Tue Mar  3 13:47:51 2015


Gurobi 6.0.0 (linux64) logging started Tue Mar  3 13:53:11 2015


Gurobi 6.0.0 (linux64) logging started Tue Mar  3 13:54:19 2015


Gurobi 6.0.0 (linux64) logging started Tue Mar  3 13:56:27 2015


Gurobi 6.0.0 (linux64) logging started Tue Mar  3 14:07:46 2015


Gurobi 6.0.0 (linux64) logging started Tue Mar  3 14:29:38 2015


Gurobi 6.0.0 (linux64) logging started Tue Mar  3 14:53:17 2015


Gurobi 6.0.0 (linux64) logging started Tue Mar  3 15:12:21 2015


Gurobi 6.0.0 (linux64) logging started Tue Mar  3 15:13:17 2015


Gurobi 6.0.0 (linux64) logging started Tue Mar  3 15:14:54 2015


Gurobi 6.0.0 (linux64) logging started Tue Mar  3 15:23:27 2015


Gurobi 6.0.0 (linux64) logging started Tue Mar  3 15:24:37 2015


Gurobi 6.0.0 (linux64) logging started Tue Mar  3 15:33:58 2015


Gurobi 6.0.0 (linux64) logging started Tue Mar  3 15:37:17 2015


Gurobi 6.0.0 (linux64) logging started Tue Mar  3 15:40:43 2015


Gurobi 6.0.0 (linux64) logging started Tue Mar  3 15:51:29 2015


Gurobi 6.0.0 (linux64) logging started Tue Mar  3 15:54:05 2015


Gurobi 6.0.0 (linux64) logging started Tue Mar  3 15:56:13 2015


Gurobi 6.0.0 (linux64) logging started Tue Mar  3 15:58:10 2015


Gurobi 6.0.0 (linux64) logging started Tue Mar  3 15:59:27 2015


Gurobi 6.0.0 (linux64) logging started Tue Mar  3 16:00:18 2015


Gurobi 6.0.0 (linux64) logging started Tue Mar  3 16:01:00 2015


Gurobi 6.0.0 (linux64) logging started Tue Mar  3 16:01:33 2015


Gurobi 6.0.0 (linux64) logging started Tue Mar  3 16:02:12 2015


Gurobi 6.0.0 (linux64) logging started Tue Mar  3 16:03:53 2015


Gurobi 6.0.0 (linux64) logging started Tue Mar  3 16:07:45 2015


Gurobi 6.0.0 (linux64) logging started Tue Mar  3 16:09:17 2015


Gurobi 6.0.0 (linux64) logging started Tue Mar  3 16:11:11 2015


Gurobi 6.0.0 (linux64) logging started Tue Mar  3 16:14:12 2015


Gurobi 6.0.0 (linux64) logging started Tue Mar  3 16:38:45 2015


Gurobi 6.0.0 (linux64) logging started Tue Mar  3 17:09:51 2015


Gurobi 6.0.0 (linux64) logging started Tue Mar  3 17:10:59 2015


Gurobi 6.0.0 (linux64) logging started Tue Mar  3 17:20:24 2015


Gurobi 6.0.0 (linux64) logging started Tue Mar  3 17:26:38 2015


Gurobi 6.0.0 (linux64) logging started Tue Mar  3 17:28:49 2015


Gurobi 6.0.0 (linux64) logging started Tue Mar  3 17:31:46 2015


Gurobi 6.0.0 (linux64) logging started Tue Mar  3 17:44:31 2015


Gurobi 6.0.0 (linux64) logging started Tue Mar  3 18:33:59 2015


Gurobi 6.0.0 (linux64) logging started Tue Mar  3 18:36:19 2015


Gurobi 6.0.0 (linux64) logging started Tue Mar  3 18:41:54 2015


Gurobi 6.0.0 (linux64) logging started Tue Mar  3 19:40:36 2015


Gurobi 6.0.0 (linux64) logging started Tue Mar  3 19:52:08 2015


Gurobi 6.0.0 (linux64) logging started Tue Mar  3 20:10:48 2015


Gurobi 6.0.0 (linux64) logging started Tue Mar  3 21:46:55 2015


Gurobi 6.0.0 (linux64) logging started Tue Mar  3 21:47:24 2015


Gurobi 6.0.0 (linux64) logging started Tue Mar  3 21:49:54 2015


Gurobi 6.0.0 (linux64) logging started Wed Mar  4 10:40:01 2015


Gurobi 6.0.0 (linux64) logging started Wed Mar  4 10:48:30 2015


Gurobi 6.0.0 (linux64) logging started Wed Mar  4 10:49:28 2015


Gurobi 6.0.0 (linux64) logging started Wed Mar  4 10:51:24 2015


Gurobi 6.0.0 (linux64) logging started Wed Mar  4 10:53:44 2015


Gurobi 6.0.0 (linux64) logging started Wed Mar  4 10:54:27 2015


Gurobi 6.0.0 (linux64) logging started Wed Mar  4 10:56:53 2015


Gurobi 6.0.0 (linux64) logging started Wed Mar  4 10:59:19 2015


Gurobi 6.0.0 (linux64) logging started Wed Mar  4 10:59:55 2015


Gurobi 6.0.0 (linux64) logging started Wed Mar  4 11:02:41 2015


Gurobi 6.0.0 (linux64) logging started Wed Mar  4 11:04:15 2015


Gurobi 6.0.0 (linux64) logging started Wed Mar  4 11:07:19 2015


Gurobi 6.0.0 (linux64) logging started Wed Mar  4 18:25:18 2015


Gurobi 6.0.0 (linux64) logging started Wed Mar  4 18:33:22 2015


Gurobi 6.0.0 (linux64) logging started Wed Mar  4 20:05:01 2015


Gurobi 6.0.0 (linux64) logging started Wed Mar  4 20:05:37 2015


Gurobi 6.0.0 (linux64) logging started Wed Mar  4 20:06:06 2015


Gurobi 6.0.0 (linux64) logging started Wed Mar  4 20:06:25 2015


Gurobi 6.0.0 (linux64) logging started Wed Mar  4 20:06:49 2015


Gurobi 6.0.0 (linux64) logging started Thu Mar  5 01:01:10 2015

